<number of tasks>
35

<cycle time>
49

<task times>
1 29
2 3
3 5
4 22
5 6
6 14
7 2
8 5
9 22
10 30
11 23
12 30
13 23
14 2
15 19
16 29
17 2
18 2
19 19
20 29
21 6
22 10
23 16
24 23
25 5
26 5
27 5
28 40
29 2
30 5
31 5
32 1
33 40
34 2
35 2

<precedence relations>
1,2
1,5
1,10
1,12
2,3
3,4
4,11
5,6
6,7
6,8
7,14
7,18
8,9
9,13
10,14
11,28
11,33
12,18
13,28
13,33
14,15
15,16
16,21
17,20
18,19
19,20
20,21
21,22
21,25
21,30
22,23
23,24
24,27
25,26
26,27
27,28
27,33
27,34
28,29
30,31
31,32
32,33
33,35

<setup times forward>
1,2:4
1,10:4
1,12:1
1,17:4
2,5:4
2,6:4
2,9:2
2,12:5
2,13:3
2,14:3
2,15:6
2,16:6
2,18:3
2,19:4
2,20:4
2,21:7
2,22:1
2,23:1
2,24:1
2,25:7
2,26:7
2,27:5
2,30:7
2,31:7
2,32:8
2,34:8
3,4:3
3,5:4
3,6:4
3,9:2
3,12:5
3,13:3
3,14:3
3,15:6
3,16:6
3,18:3
3,19:4
3,20:4
3,21:7
3,22:1
3,23:1
3,24:1
3,25:7
3,26:7
3,27:5
3,30:7
3,31:7
3,32:8
3,34:8
4,5:1
4,6:1
4,7:3
4,8:3
4,9:1
4,10:3
4,11:4
4,12:2
4,15:3
4,16:3
4,17:3
4,19:1
4,20:1
4,21:4
4,22:2
4,23:2
4,24:2
4,25:4
4,26:4
4,27:2
4,30:4
4,31:4
4,32:5
4,34:5
5,2:4
5,3:4
5,4:1
5,10:4
5,11:3
5,12:1
5,17:4
6,2:4
6,3:4
6,4:1
6,7:4
6,8:4
6,10:4
6,11:3
6,12:1
6,17:4
7,4:3
7,9:2
7,11:7
7,12:5
7,13:3
7,14:3
7,18:3
8,4:3
8,9:2
8,11:7
8,12:5
8,14:3
8,15:6
8,16:6
8,18:3
8,19:4
8,20:4
8,21:7
8,22:1
8,23:1
8,24:1
8,25:7
8,26:7
8,27:5
8,30:7
8,31:7
8,32:8
8,34:8
9,2:2
9,3:2
9,4:1
9,7:2
9,10:2
9,11:5
9,12:3
9,13:1
9,14:1
9,15:4
9,16:4
9,17:2
9,18:1
9,19:2
9,20:2
9,21:5
9,22:1
9,23:1
9,24:1
9,25:5
9,26:5
9,27:3
9,30:5
9,31:5
9,32:6
9,34:6
10,4:3
10,5:4
10,6:4
10,9:2
10,11:7
10,12:5
10,13:3
10,14:3
10,18:3
10,19:4
10,20:4
11,5:3
11,6:3
11,7:7
11,8:7
11,9:5
11,10:7
11,12:2
11,13:4
11,14:4
11,15:1
11,16:1
11,17:7
11,18:4
11,19:3
11,20:3
11,22:6
11,23:6
11,24:6
11,27:2
11,28:2
11,32:1
11,33:1
11,34:1
12,2:5
12,3:5
12,4:2
12,5:1
12,6:1
12,7:5
12,8:5
12,9:3
12,10:5
12,11:2
12,13:2
12,14:2
12,15:1
12,16:1
12,17:5
12,18:2
13,2:3
13,3:3
13,7:3
13,10:3
13,11:4
13,12:2
13,15:3
13,16:3
13,17:3
13,19:1
13,20:1
13,21:4
13,22:2
13,23:2
13,24:2
13,25:4
13,26:4
13,27:2
13,28:2
13,30:4
13,31:4
13,32:5
13,33:5
13,34:5
14,2:3
14,3:3
14,8:3
14,9:1
14,11:4
14,12:2
14,15:3
14,17:3
14,19:1
14,20:1
15,2:6
15,3:6
15,4:3
15,8:6
15,9:4
15,11:1
15,12:1
15,13:3
15,17:6
15,18:3
15,19:2
15,20:2
16,2:6
16,3:6
16,4:3
16,8:6
16,9:4
16,11:1
16,12:1
16,13:3
16,17:6
16,18:3
16,19:2
16,20:2
16,21:1
17,1:4
17,4:3
17,5:4
17,6:4
17,9:2
17,11:7
17,12:5
17,13:3
17,14:3
17,15:6
17,16:6
17,18:3
17,19:4
17,20:4
18,2:3
18,3:3
18,8:3
18,9:1
18,10:3
18,11:4
18,15:3
18,16:3
18,17:3
18,19:1
19,2:4
19,3:4
19,4:1
19,8:4
19,9:2
19,10:4
19,11:3
19,13:1
19,14:1
19,15:2
19,16:2
19,17:4
20,2:4
20,3:4
20,4:1
20,8:4
20,9:2
20,10:4
20,11:3
20,13:1
20,14:1
20,15:2
20,16:2
20,21:3
21,2:7
21,3:7
21,4:4
21,8:7
21,9:5
21,13:4
21,22:6
22,2:1
22,3:1
22,4:2
22,8:1
22,9:1
22,11:6
22,13:2
22,25:6
22,26:6
22,30:6
22,31:6
22,32:7
23,2:1
23,3:1
23,4:2
23,8:1
23,9:1
23,11:6
23,13:2
23,25:6
23,26:6
23,30:6
23,31:6
23,32:7
24,2:1
24,3:1
24,4:2
24,8:1
24,9:1
24,11:6
24,13:2
24,25:6
24,26:6
24,27:4
24,30:6
24,31:6
24,32:7
25,2:7
25,3:7
25,4:4
25,8:7
25,9:5
25,13:4
25,22:6
25,23:6
25,24:6
25,32:1
26,2:7
26,3:7
26,4:4
26,8:7
26,9:5
26,13:4
26,22:6
26,23:6
26,24:6
26,27:2
26,32:1
27,2:5
27,3:5
27,4:2
27,8:5
27,9:3
27,11:2
27,13:2
27,30:2
27,31:2
27,32:3
27,33:3
27,34:3
28,29:3
28,30:2
28,31:2
28,32:3
28,33:3
28,34:3
28,35:3
29,30:1
29,31:1
30,2:7
30,3:7
30,4:4
30,8:7
30,9:5
30,13:4
30,22:6
30,23:6
30,24:6
30,27:2
30,28:2
30,29:1
30,34:1
31,2:7
31,3:7
31,4:4
31,8:7
31,9:5
31,13:4
31,22:6
31,23:6
31,24:6
31,27:2
31,28:2
31,29:1
31,32:1
31,34:1
32,2:8
32,3:8
32,4:5
32,8:8
32,9:6
32,11:1
32,13:5
32,22:7
32,23:7
32,24:7
32,25:1
32,26:1
32,27:3
32,28:3
33,28:3
34,2:8
34,3:8
34,4:5
34,8:8
34,9:6
34,11:1
34,13:5
34,28:3
34,30:1
34,31:1
35,28:3

<setup times backward>
2,1:4
2,5:4
2,6:4
2,9:2
2,12:5
2,13:3
2,14:3
2,15:6
2,16:6
2,18:3
2,19:4
2,20:4
2,21:7
2,22:1
2,23:1
2,24:1
2,25:7
2,26:7
2,27:5
2,30:7
2,31:7
2,32:8
2,34:8
3,1:4
3,5:4
3,6:4
3,9:2
3,12:5
3,13:3
3,14:3
3,15:6
3,16:6
3,18:3
3,19:4
3,20:4
3,21:7
3,22:1
3,23:1
3,24:1
3,25:7
3,26:7
3,27:5
3,30:7
3,31:7
3,32:8
3,34:8
4,1:1
4,5:1
4,6:1
4,12:2
4,15:3
4,16:3
4,19:1
4,20:1
4,21:4
4,25:4
4,26:4
4,27:2
4,30:4
4,31:4
4,32:5
4,34:5
5,11:3
5,12:1
6,11:3
6,12:1
7,1:4
7,4:3
7,5:4
7,6:4
7,9:2
7,11:7
7,12:5
7,13:3
8,1:4
8,4:3
8,5:4
8,6:4
8,11:7
8,12:5
8,14:3
8,15:6
8,16:6
8,18:3
8,19:4
8,20:4
8,21:7
8,22:1
8,23:1
8,24:1
8,25:7
8,26:7
8,27:5
8,30:7
8,31:7
8,32:8
8,34:8
9,1:2
9,4:1
9,5:2
9,6:2
9,11:5
9,12:3
9,14:1
9,15:4
9,16:4
9,18:1
9,19:2
9,20:2
9,21:5
9,25:5
9,26:5
9,27:3
9,30:5
9,31:5
9,32:6
9,34:6
10,1:4
10,4:3
10,5:4
10,6:4
10,9:2
10,11:7
10,12:5
10,13:3
10,18:3
10,19:4
10,20:4
11,32:1
11,34:1
12,11:2
12,15:1
12,16:1
13,1:1
13,5:1
13,6:1
13,11:4
13,12:2
13,15:3
13,16:3
13,19:1
13,20:1
13,21:4
13,25:4
13,26:4
13,27:2
13,30:4
13,31:4
13,32:5
13,34:5
14,1:1
14,5:1
14,6:1
14,11:4
14,12:2
14,19:1
14,20:1
15,11:1
16,11:1
17,1:4
17,4:3
17,5:4
17,6:4
17,9:2
17,11:7
17,12:5
17,13:3
17,14:3
17,15:6
17,16:6
17,18:3
17,19:4
18,1:1
18,5:1
18,6:1
18,11:4
18,12:2
18,15:3
18,16:3
19,11:3
19,12:1
19,15:2
19,16:2
20,11:3
20,12:1
20,15:2
20,16:2
22,1:3
22,4:2
22,5:3
22,6:3
22,9:1
22,11:6
22,12:4
22,13:2
22,14:2
22,15:5
22,16:5
22,18:2
22,19:3
22,20:3
22,21:6
22,25:6
22,26:6
22,30:6
22,31:6
22,32:7
23,1:3
23,4:2
23,5:3
23,6:3
23,9:1
23,11:6
23,12:4
23,13:2
23,14:2
23,15:5
23,16:5
23,18:2
23,19:3
23,20:3
23,21:6
23,25:6
23,26:6
23,30:6
23,31:6
23,32:7
24,1:3
24,4:2
24,5:3
24,6:3
24,9:1
24,11:6
24,12:4
24,13:2
24,14:2
24,15:5
24,16:5
24,18:2
24,19:3
24,20:3
24,21:6
24,25:6
24,26:6
24,30:6
24,31:6
24,32:7
25,32:1
26,32:1
27,11:2
27,15:1
27,16:1
27,21:2
27,25:2
27,26:2
27,30:2
27,31:2
27,32:3
28,11:2
28,15:1
28,16:1
28,21:2
28,25:2
28,26:2
28,30:2
28,31:2
28,32:3
28,33:3
28,34:3
28,35:3
30,29:1
30,34:1
31,29:1
31,34:1

<end>

<optimal SALBP-1 value>
11


<rand seed>
467321153

